param n := 32;
param c := 100;
param w := 
1 100
2 97
3 94
4 92
5 91
6 90
7 90
8 86
9 81
10 79
11 77
12 72
13 72
14 68
15 56
16 54
17 51
18 49
19 48
20 44
21 35
22 25
23 23
24 21
25 9
26 8
27 8
28 7
29 7
30 7
31 3
32 3
;